20:53:50 | INFO    | Run started | run_id: MR_MV_RD_case3_P10_R3_eps9999 | log file: C:\Users\Asus\Documents\GitHub\logistics-model2\internal-logistics-model2\results\MR_MV_RD\case3\MR_MV_RD_case3_P10_R3_eps9999_2026_05_04_20_53.log
20:53:50 | INFO    | Products loaded | sheet=case3 | rows=10
20:53:50 | INFO    | Data loaded | |N|=26 |Nw|=25 |K|=3 |R|=3 |P|=10 | U=25
20:53:50 | INFO    | Big-M | time=491.0 precedence=480.0 wait=465.0 load_lb=20 load_ub=20
20:53:50 | INFO    | Set parameter Username
20:53:50 | INFO    | Set parameter LicenseID to value 2811848
20:53:50 | INFO    | Academic license - for non-commercial use only - expires 2027-04-22
20:53:50 | INFO    | Objective set | primary: min route_duration | tie-break weight on wait: 0.001
20:53:50 | INFO    | Constraint (3) added | total_wait <= 9999
20:53:50 | INFO    | Constraints (4)-(9) added | route structure
20:53:50 | INFO    | Constraints (10)-(12) added | product assignment
20:53:50 | INFO    | Constraints (13)-(15) added | route timing
20:53:51 | INFO    | Constraints (16) added | time consistency
20:53:51 | INFO    | Constraints (17)-(19) added | service times
20:53:51 | INFO    | Constraints (20)-(22) added | precedence, route closure, waiting
20:53:51 | INFO    | Constraints (23)-(27) added | load propagation
20:53:51 | INFO    | Constraints (28)-(32) added | MTZ and route ordering
20:53:51 | INFO    | Set parameter TimeLimit to value 600
20:53:51 | INFO    | Set parameter MIPGap to value 0.01
20:53:51 | INFO    | Set parameter Presolve to value 2
20:53:51 | INFO    | Set parameter LogFile to value "C:\Users\Asus\Documents\GitHub\logistics-model2\internal-logistics-model2\results\MR_MV_RD\case3\result_MR_MV_RD_case3_P10_R3_eps9999_2026_05_04_20_53.log"
20:53:51 | INFO    | Solver configured | TimeLimit=600s | MIPGap=0.01 | gurobi_log=C:\Users\Asus\Documents\GitHub\logistics-model2\internal-logistics-model2\results\MR_MV_RD\case3\result_MR_MV_RD_case3_P10_R3_eps9999_2026_05_04_20_53.log
20:53:51 | INFO    | Optimization starting...
20:53:51 | INFO    | Gurobi Optimizer version 12.0.0 build v12.0.0rc1 (win64 - Windows 10.0 (19045.2))
20:53:51 | INFO    | 
20:53:51 | INFO    | CPU model: 12th Gen Intel(R) Core(TM) i7-12650H, instruction set [SSE2|AVX|AVX2]
20:53:51 | INFO    | Thread count: 10 physical cores, 16 logical processors, using up to 16 threads
20:53:51 | INFO    | 
20:53:51 | INFO    | Non-default parameters:
20:53:51 | INFO    | TimeLimit  600
20:53:51 | INFO    | MIPGap  0.01
20:53:51 | INFO    | Presolve  2
20:53:51 | INFO    | 
20:53:51 | INFO    | Optimize a model with 24692 rows, 7327 columns and 125779 nonzeros
20:53:51 | INFO    | Model fingerprint: 0xf71b96bf
20:53:51 | INFO    | Variable types: 1162 continuous, 6165 integer (5940 binary)
20:53:51 | INFO    | Coefficient statistics:
20:53:51 | INFO    |   Matrix range     [1e+00, 5e+02]
20:53:51 | INFO    |   Objective range  [1e-03, 1e+00]
20:53:51 | INFO    |   Bounds range     [1e+00, 3e+01]
20:53:51 | INFO    |   RHS range        [1e+00, 1e+04]
20:53:51 | INFO    | Presolve removed 21201 rows and 6186 columns
20:53:51 | INFO    | Presolve time: 0.07s
20:53:51 | INFO    | Presolved: 3491 rows, 1141 columns, 19651 nonzeros
20:53:51 | INFO    | Variable types: 340 continuous, 801 integer (729 binary)
20:53:51 | INFO    | Root relaxation presolve removed 33 rows and 0 columns
20:53:51 | INFO    | Root relaxation presolved: 3458 rows, 1165 columns, 19459 nonzeros
20:53:51 | INFO    | 
20:53:51 | INFO    | 
20:53:51 | INFO    | Root relaxation: objective 0.000000e+00, 342 iterations, 0.02 seconds (0.03 work units)
20:53:51 | INFO    | 
20:53:51 | INFO    |     Nodes    |    Current Node    |     Objective Bounds      |     Work
20:53:51 | INFO    |  Expl Unexpl |  Obj  Depth IntInf | Incumbent    BestBd   Gap | It/Node Time
20:53:51 | INFO    | 
20:53:51 | INFO    |      0     0    0.00000    0   54          -    0.00000      -     -    0s
20:53:51 | INFO    |      0     0    0.00000    0  136          -    0.00000      -     -    0s
20:53:51 | INFO    |      0     0    0.00000    0  136          -    0.00000      -     -    0s
20:53:51 | INFO    |      0     0    0.00001    0   82          -    0.00001      -     -    0s
20:53:51 | INFO    |      0     0    0.00001    0   77          -    0.00001      -     -    0s
20:53:51 | INFO    | H    0     0                    32937.999000    0.00001   100%     -    0s
20:53:51 | INFO    |      0     0    0.01206    0  126 32937.9990    0.01206   100%     -    0s
20:53:51 | INFO    |      0     0    0.01504    0  126 32937.9990    0.01504   100%     -    0s
20:53:51 | INFO    |      0     0    0.01504    0  130 32937.9990    0.01504   100%     -    0s
20:53:51 | INFO    |      0     0    0.02702    0  113 32937.9990    0.02702   100%     -    0s
20:53:51 | INFO    |      0     0    0.02702    0  119 32937.9990    0.02702   100%     -    0s
20:53:51 | INFO    |      0     0    0.03000    0   75 32937.9990    0.03000   100%     -    0s
20:53:51 | INFO    |      0     0    0.03000    0   72 32937.9990    0.03000   100%     -    0s
20:53:52 | INFO    |      0     0    0.03000    0  100 32937.9990    0.03000   100%     -    0s
20:53:52 | INFO    | H    0     0                     212.4360000    0.03000   100%     -    0s
20:53:52 | INFO    |      0     0    0.03000    0   98  212.43600    0.03000   100%     -    0s
20:53:52 | INFO    |      0     0    0.03000    0   66  212.43600    0.03000   100%     -    0s
20:53:52 | INFO    | H    0     0                     106.4260000    0.03000   100%     -    0s
20:53:52 | INFO    |      0     0    0.03000    0   69  106.42600    0.03000   100%     -    0s
20:53:52 | INFO    |      0     0    0.03000    0   60  106.42600    0.03000   100%     -    1s
20:53:52 | INFO    |      0     0    0.03000    0   58  106.42600    0.03000   100%     -    1s
20:53:52 | INFO    |      0     0    0.03000    0   63  106.42600    0.03000   100%     -    1s
20:53:52 | INFO    |      0     0    0.03000    0   63  106.42600    0.03000   100%     -    1s
20:53:52 | INFO    |      0     2    0.03000    0   58  106.42600    0.03000   100%     -    1s
20:53:53 | INFO    | H 1020   641                     104.4280000    0.03000   100%  69.7    2s
20:53:55 | INFO    | H 2305  1294                     104.4270000    0.03000   100%  58.7    4s
20:53:56 | INFO    |   2310  1298    0.03000   14   58  104.42700    0.03000   100%  58.6    5s
20:53:57 | INFO    | H 2316  1237                     103.4270000    0.03000   100%  58.5    6s
20:53:57 | INFO    | H 2316  1175                     102.4040000    0.03000   100%  58.5    6s
20:54:01 | INFO    |   2997  1522    0.04625   27   75  102.40400    0.03000   100%  98.1   10s
20:54:06 | INFO    |   6130  2444    0.05235   26   83  102.40400    0.03000   100%   124   15s
20:54:12 | INFO    |   7949  3326 infeasible   47       102.40400    0.03000   100%   128   20s
20:54:16 | INFO    |  11075  4665    0.03576   28   85  102.40400    0.03000   100%   133   25s
20:54:21 | INFO    |  13000  5543   78.12006   41   64  102.40400    0.03000   100%   139   30s
20:54:26 | INFO    |  14828  6113    2.77113   43  126  102.40400    0.03000   100%   141   35s
20:54:32 | INFO    |  15745  6770    0.03062   28   87  102.40400    0.03000   100%   143   40s
20:54:36 | INFO    |  18233  7733    0.03917   44  116  102.40400    0.03000   100%   148   45s
20:54:41 | INFO    |  21050  9249   44.75632   37   84  102.40400    0.03000   100%   154   50s
20:54:46 | INFO    |  24938 10971    0.03000   28   87  102.40400    0.03000   100%   159   55s
20:54:51 | INFO    |  28029 12455    0.22853   40  115  102.40400    0.03000   100%   163   60s
20:54:57 | INFO    |  31415 14013   81.07400   48   60  102.40400    0.03000   100%   166   65s
20:55:03 | INFO    |  32966 14423    0.04161   27   84  102.40400    0.03000   100%   167   71s
20:55:07 | INFO    |  34875 15762    0.03000   40   99  102.40400    0.03000   100%   167   76s
20:55:13 | INFO    |  38340 17400    0.11164   37  115  102.40400    0.03000   100%   168   81s
20:55:25 | INFO    |  41982 19192   95.18443   68   48  102.40400    0.03000   100%   168   94s
20:55:28 | INFO    |  44216 19198    0.05413   27   76  102.40400    0.03000   100%   170   97s
20:55:34 | INFO    |  44342 19487    0.14049   29   66  102.40400    0.03000   100%   169  102s
20:55:38 | INFO    |  44871 20389   74.08000   31   72  102.40400    0.03000   100%   170  106s
20:55:41 | INFO    |  46683 20772    0.03191   38   78  102.40400    0.03000   100%   171  110s
20:55:49 | INFO    |  49523 23010    0.06986   29   64  102.40400    0.03000   100%   171  118s
20:55:53 | INFO    |  52052 24113    0.09441   35   59  102.40400    0.03000   100%   171  122s
20:55:57 | INFO    |  54342 25231    0.03000   44   90  102.40400    0.03000   100%   172  125s
20:56:03 | INFO    |  58916 27345   64.07162   62   64  102.40400    0.03000   100%   172  132s
20:56:07 | INFO    |  61057 28286    0.03000   53   77  102.40400    0.03000   100%   171  135s
20:56:34 | INFO    |  63188 34955    0.03021   28   98  102.40400    0.03000   100%   172  162s
20:56:40 | INFO    |  77117 35813    0.08169   41   97  102.40400    0.03000   100%   172  168s
20:56:44 | INFO    |  79124 36846    0.11564   65   75  102.40400    0.03000   100%   171  172s
20:56:48 | INFO    |  81259 37807    0.15686   39  101  102.40400    0.03000   100%   171  176s
20:56:52 | INFO    |  83263 38756    0.03000   44   65  102.40400    0.03000   100%   171  180s
20:56:57 | INFO    |  85225 39857    0.11491   65   36  102.40400    0.03000   100%   171  185s
20:57:02 | INFO    |  87791 40118   48.04195   56   69  102.40400    0.03000   100%   170  190s
20:57:09 | INFO    |  89502 41742   48.05083   58   68  102.40400    0.03000   100%   170  198s
20:57:14 | INFO    |  91496 42946    2.40242   34   80  102.40400    0.03000   100%   170  202s
20:57:18 | INFO    |  93738 43853  100.21000   34   48  102.40400    0.03000   100%   169  207s
20:57:22 | INFO    |  95646 44767    0.03000   32   79  102.40400    0.03000   100%   169  211s
20:57:26 | INFO    |  97442 45693    2.84940   46  105  102.40400    0.03000   100%   169  215s
20:57:34 | INFO    |  101172 47243   57.07975   48   66  102.40400    0.03000   100%   169  223s
20:57:39 | INFO    |  102787 48226    0.10984   55   79  102.40400    0.03000   100%   169  227s
20:57:43 | INFO    |  104788 49149   74.16248   41   94  102.40400    0.03000   100%   169  231s
20:57:48 | INFO    |  106757 50123 infeasible   48       102.40400    0.03000   100%   168  236s
20:57:53 | INFO    |  108768 50149    0.03000   31   88  102.40400    0.03000   100%   169  242s
20:57:56 | INFO    |  108786 50162    0.06200   29   72  102.40400    0.03000   100%   169  245s
20:58:01 | INFO    |  108805 50610    0.03000   31   75  102.40400    0.03000   100%   169  250s
20:58:11 | INFO    |  110078 51413    0.08229   45   75  102.40400    0.03000   100%   168  259s
20:58:11 | INFO    |  111018 51413   88.21300   53   29  102.40400    0.03000   100%   168  260s
20:58:19 | INFO    |  111583 52594    0.03056   53   82  102.40400    0.03000   100%   168  267s
20:58:25 | INFO    |  113947 53901 infeasible   57       102.40400    0.03000   100%   168  273s
20:58:31 | INFO    |  116497 54999    0.04008   46   60  102.40400    0.03000   100%   168  279s
20:58:31 | INFO    |  117433 54999    1.47753   36   79  102.40400    0.03000   100%   168  280s
20:58:37 | INFO    |  118607 56123    0.03000   42   78  102.40400    0.03000   100%   168  285s
20:58:42 | INFO    |  120473 57150   64.55235   61   67  102.40400    0.03000   100%   168  290s
20:58:48 | INFO    |  122376 58094    0.05502   41   65  102.40400    0.03000   100%   168  296s
20:58:53 | INFO    |  124132 59267   61.48162   41   50  102.40400    0.03000   100%   168  302s
20:58:58 | INFO    |  126187 60186 infeasible   57       102.40400    0.03000   100%   168  307s
20:59:02 | INFO    |  128272 60252    0.05960   49   72  102.40400    0.03000   100%   168  311s
20:59:43 | INFO    |  128366 68094    0.06351   50   70  102.40400    0.03000   100%   168  352s
20:59:46 | INFO    |  143366 68094    0.03019   40   77  102.40400    0.03000   100%   167  355s
20:59:56 | INFO    |  146285 70027     cutoff   58       102.40400    0.03000   100%   167  364s
21:00:00 | INFO    |  148211 70923    0.05519   53   85  102.40400    0.03000   100%   167  369s
21:00:06 | INFO    |  149942 71830 infeasible   62       102.40400    0.03000   100%   167  374s
21:00:11 | INFO    |  152018 72446   37.03000   44   89  102.40400    0.03000   100%   167  379s
21:00:14 | INFO    |  153382 72473   98.14867   42   68  102.40400    0.03000   100%   167  382s
21:00:17 | INFO    |  153500 72755   98.14867   43   72  102.40400    0.03000   100%   167  386s
21:00:21 | INFO    |  154030 73511   98.14867   44   83  102.40400    0.03000   100%   167  390s
21:00:27 | INFO    |  155458 74417 infeasible   63       102.40400    0.03000   100%   166  395s
21:00:32 | INFO    |  157407 75374    0.03340   57   99  102.40400    0.03000   100%   166  401s
21:00:38 | INFO    |  159433 76490    0.03000   78   82  102.40400    0.03000   100%   166  407s
21:00:44 | INFO    |  161753 77597    0.03882   55   86  102.40400    0.03000   100%   166  412s
21:00:49 | INFO    |  163843 78523    0.19131   62  102  102.40400    0.03000   100%   166  418s
21:00:54 | INFO    |  165926 79461 infeasible   64       102.40400    0.03000   100%   165  423s
21:00:59 | INFO    |  168034 80457   76.03603   52   63  102.40400    0.03000   100%   165  428s
21:01:04 | INFO    |  170054 81286 infeasible   48       102.40400    0.03000   100%   165  433s
21:01:10 | INFO    |  171857 82290   77.06200   64   49  102.40400    0.03000   100%   165  438s
21:01:15 | INFO    |  173847 83024    0.05848   47   64  102.40400    0.03000   100%   165  444s
21:01:20 | INFO    |  175546 83707    0.04495   47   89  102.40400    0.03000   100%   165  449s
21:01:25 | INFO    |  177049 84698   67.07036   55   95  102.40400    0.03000   100%   165  453s
21:01:30 | INFO    |  178931 85641    0.04498   46   73  102.40400    0.03000   100%   165  459s
21:01:35 | INFO    |  180664 86590   28.07177   45   89  102.40400    0.03000   100%   165  464s
21:01:40 | INFO    |  182370 87504    1.21092   43   85  102.40400    0.03000   100%   165  468s
21:01:43 | INFO    |  184102 87515   37.10382   60   57  102.40400    0.03000   100%   165  471s
21:01:48 | INFO    |  184209 87568 infeasible   62       102.40400    0.03000   100%   165  476s
21:01:51 | INFO    |  184230 87791     cutoff   62       102.40400    0.03000   100%   165  480s
21:01:58 | INFO    |  184865 88437     cutoff   62       102.40400    0.03000   100%   165  487s
21:02:04 | INFO    |  185781 89121    0.03215   38   80  102.40400    0.03000   100%   164  492s
21:02:09 | INFO    |  187226 90041   50.06517   77   76  102.40400    0.03000   100%   164  498s
21:02:15 | INFO    |  189111 91014    0.10208   49   95  102.40400    0.03000   100%   165  504s
21:02:21 | INFO    |  190993 92048    0.06100   60   81  102.40400    0.03000   100%   164  509s
21:02:26 | INFO    |  193055 92934 infeasible   74       102.40400    0.03000   100%   164  515s
21:02:32 | INFO    |  194829 93846    5.74015   92   63  102.40400    0.03000   100%   165  521s
21:02:37 | INFO    |  196605 94715    0.05987   40   72  102.40400    0.03000   100%   164  526s
21:02:42 | INFO    |  198504 95839    0.04900   59   84  102.40400    0.03000   100%   164  531s
21:02:48 | INFO    |  200392 96604    0.06917   50   77  102.40400    0.03000   100%   164  536s
21:02:53 | INFO    |  202028 97415    0.37787   63   82  102.40400    0.03000   100%   164  541s
21:02:58 | INFO    |  203734 98504   99.17400   46   14  102.40400    0.03000   100%   164  546s
21:03:03 | INFO    |  205636 99360    1.27007   51   91  102.40400    0.03000   100%   164  551s
21:03:08 | INFO    |  207381 100135    0.12835   39   70  102.40400    0.03000   100%   164  556s
21:03:13 | INFO    |  209126 100981 infeasible   46       102.40400    0.03000   100%   164  561s
21:03:16 | INFO    |  210798 100995    0.04843   82   78  102.40400    0.03000   100%   164  565s
21:03:23 | INFO    |  211347 101541    0.82088   84   73  102.40400    0.03000   100%   164  572s
21:03:28 | INFO    |  212333 102118    2.86705   73   85  102.40400    0.03000   100%   164  576s
21:03:33 | INFO    |  213706 102923    0.03120   46   88  102.40400    0.03000   100%   164  581s
21:03:39 | INFO    |  215429 103516    0.04033   40   76  102.40400    0.03000   100%   164  587s
21:03:45 | INFO    |  216785 104497   88.12910   44   37  102.40400    0.03000   100%   164  593s
21:03:50 | INFO    |  218860 105184    3.36893  110   48  102.40400    0.03000   100%   164  599s
21:03:51 | INFO    |  220547 105300   54.79608   47   37  102.40400    0.03000   100%   164  600s
21:03:51 | INFO    | 
21:03:51 | INFO    | Cutting planes:
21:03:51 | INFO    |   Learned: 192
21:03:51 | INFO    |   Gomory: 14
21:03:51 | INFO    |   Cover: 414
21:03:51 | INFO    |   Implied bound: 587
21:03:51 | INFO    |   Projected implied bound: 20
21:03:51 | INFO    |   Clique: 17
21:03:51 | INFO    |   MIR: 797
21:03:51 | INFO    |   Mixing: 42
21:03:51 | INFO    |   StrongCG: 21
21:03:51 | INFO    |   Flow cover: 4440
21:03:51 | INFO    |   Inf proof: 224
21:03:51 | INFO    |   Zero half: 43
21:03:51 | INFO    |   RLT: 301
21:03:51 | INFO    |   Relax-and-lift: 93
21:03:51 | INFO    |   BQP: 1
21:03:51 | INFO    | 
21:03:51 | INFO    | Explored 220820 nodes (36215691 simplex iterations) in 600.14 seconds (440.62 work units)
21:03:51 | INFO    | Thread count was 16 (of 16 available processors)
21:03:51 | INFO    | 
21:03:51 | INFO    | Solution count 7: 102.404 103.427 104.427 ... 314.113
21:03:51 | INFO    | 
21:03:51 | INFO    | Time limit reached
21:03:51 | INFO    | Best objective 1.024040000000e+02, best bound 2.999999999920e-02, gap 99.9707%
21:03:51 | INFO    | Solution found | route_duration=102.00 | total_wait=404.00
21:03:51 | INFO    | Objective=102.40 | runtime=600.14s | MIP Gap=99.97%
21:03:51 | INFO    | Generating Excel output | C:\Users\Asus\Documents\GitHub\logistics-model2\internal-logistics-model2\results\MR_MV_RD\case3\result_MR_MV_RD_case3_P10_R3_eps9999_2026_05_04_20_53.xlsx
21:03:53 | INFO    | Excel output written | 12 sheets | C:\Users\Asus\Documents\GitHub\logistics-model2\internal-logistics-model2\results\MR_MV_RD\case3\result_MR_MV_RD_case3_P10_R3_eps9999_2026_05_04_20_53.xlsx
21:03:54 | INFO    | Master Pareto updated | 18 total rows | C:\Users\Asus\Documents\GitHub\logistics-model2\internal-logistics-model2\results\master_pareto.xlsx
21:03:54 | INFO    | Run complete | run_id=MR_MV_RD_case3_P10_R3_eps9999
